c smth
s vc 200 134
200
198
197
196
192
190
188
187
186
185
183
181
178
177
176
173
171
170
168
165
163
162
161
158
156
155
154
153
152
151
150
149
148
146
145
140
138
134
133
131
129
126
125
123
122
121
119
118
117
116
115
113
112
111
109
107
105
104
103
102
99
97
95
94
91
90
89
88
86
85
84
82
80
79
78
77
75
73
72
71
70
69
68
67
66
65
64
63
62
60
59
58
57
55
54
52
49
48
46
45
44
42
41
40
39
38
37
36
35
34
33
32
30
29
27
26
25
24
23
21
19
18
16
15
14
13
11
9
8
7
6
5
4
2